p edge 31 100
e 1 5
e 1 9
e 1 14
e 1 20
e 1 23
e 1 26
e 1 27
e 1 30
e 2 7
e 2 11
e 2 13
e 2 17
e 2 18
e 2 19
e 2 21
e 2 22
e 3 4
e 3 6
e 3 8
e 3 24
e 4 6
e 4 8
e 4 21
e 4 24
e 5 11
e 5 13
e 5 14
e 5 18
e 5 22
e 5 23
e 5 27
e 5 30
e 6 8
e 7 17
e 7 19
e 7 21
e 7 25
e 7 29
e 8 21
e 9 14
e 9 16
e 9 27
e 9 28
e 9 30
e 10 15
e 10 16
e 10 25
e 10 28
e 11 13
e 11 18
e 11 22
e 11 27
e 11 30
e 11 31
e 12 13
e 12 24
e 12 31
e 13 18
e 13 21
e 13 22
e 13 27
e 13 31
e 14 20
e 14 23
e 14 26
e 14 27
e 14 30
e 15 16
e 15 25
e 15 28
e 16 25
e 16 27
e 16 28
e 16 30
e 17 18
e 17 19
e 17 21
e 17 25
e 17 29
e 18 19
e 18 21
e 18 22
e 18 27
e 18 30
e 19 21
e 19 25
e 19 29
e 20 23
e 20 26
e 21 29
e 22 27
e 22 30
e 22 31
e 23 26
e 24 31
e 25 28
e 25 29
e 27 28
e 27 30
e 28 30
